0 1308
1 1308
2 1299
3 1258
4 1258
5 1249
6 1237
7 1172
8 1172
9 1164
10 1148
11 1115
12 1115
13 1105
14 1086
15 1086
16 1085
17 1085
18 1084
19 1071
20 1071
21 1071
22 1066
23 1053
24 1053
25 1053
26 1053
27 1053
28 1053
29 1052
30 1041
31 1032
32 1017
33 1001
34 1001
35 1001
36 1001
37 1001
38 987
39 987
40 987
41 974
42 966
43 966
44 966
45 966
46 966
47 942
48 942
49 939
50 938
51 938
52 938
53 938
54 938
55 928
56 922
57 920
58 910
59 901
60 901
61 901
62 901
63 879
64 865
65 865
66 865
67 865
68 865
69 864
70 826
71 826
72 826
73 826
74 826
75 819
76 819
77 815
78 794
79 781
80 781
81 781
82 781
83 780
84 759
85 759
86 754
87 754
88 745
89 745
90 745
91 745
92 745
93 745
94 745
95 745
96 745
97 741
98 741
99 741
100 734
101 734
102 734
103 734
104 734
105 730
106 730
107 730
108 725
109 705
110 705
111 695
112 695
113 695
114 695
115 686
116 678
117 677
118 677
119 677
120 677
121 670
122 670
123 660
124 660
125 660
126 653
127 653
128 649
129 649
130 649
131 649
132 649
133 647
134 647
135 643
136 643
137 643
138 639
139 639
140 631
141 629
142 626
143 618
144 605
145 605
146 605
147 605
148 605
149 605
150 605
151 599
152 599
153 599
154 599
155 599
156 599
157 599
158 599
159 599
160 599
161 599
162 599
163 599
164 599
165 596
166 593
167 593
168 590
169 583
170 583
171 578
172 574
173 573
174 563
175 563
176 563
177 549
178 549
179 548
180 546
181 546
182 543
183 543
184 539
185 538
186 538
187 538
188 538
189 538
190 538
191 535
192 534
193 534
194 534
195 534
196 534
197 526
198 526
199 526
200 526
201 526
202 525
203 521
204 521
205 519
206 519
207 514
208 514
209 509
210 509
211 506
212 506
213 506
214 506
215 505
216 505
217 502
218 501
219 501
220 501
221 501
222 499
223 499
224 498
225 498
226 495
227 495
228 495
229 495
230 495
231 495
232 489
233 489
234 488
235 485
236 485
237 485
238 485
239 485
240 485
241 484
242 484
243 484
244 484
245 479
246 479
247 479
248 478
249 475
250 475
251 474
252 474
253 472
254 470
255 470
256 470
257 470
258 468
259 468
260 467
261 467
262 467
263 467
264 467
265 467
266 467
267 467
268 467
269 467
270 465
271 465
272 465
273 464
274 464
275 464
276 463
277 463
278 463
279 462
280 461
281 461
282 461
283 461
284 459
285 459
286 459
287 459
288 459
289 459
290 459
291 458
292 458
293 458
294 458
295 458
296 458
297 458
298 458
299 458
